142062
44,24,85,45,5,39,55,19,15,63,89,16,20,76,21,61,1,32,52,83,38,72,47,84,35,70,53,94,66,40,10,103,37,104,100,2,59,95,77,93,69,36,48,17,6,31,62,74,34,102,60,3,14,90,78,42,0,86,43,65,58,9,26,27,57,75,23,101,73,88,92,11,28,29,4,54,96,7,105,51,64,30,12,87,68,97,41,80,18,8,91,22,79,56,82,33,25,13,46,49,67,98,99,50,81,71
